\ Model sp_11_7
\ LP format - for model browsing. Use MPS format to capture full model detail.
\ Signature: 0xb050d3b5baabe1c8
Minimize
  53.25 y[0,1] + 61.59 y[0,2] + 65.46 y[0,3] + 43.05 y[0,4] + 53.08 y[0,5]
   + 17.8 y[0,7] + 76.22 y[0,9] + 58.24 y[0,10] + 53.25 y[1,0]
   + 82.73 y[1,2] + 54.08 y[1,3] + 46.96 y[1,6] + 55 y[1,7] + 41.98 y[1,8]
   + 61.72 y[1,9] + 18.44 y[1,10] + 61.59 y[2,0] + 82.73 y[2,1]
   + 42.45 y[2,3] + 36.14 y[2,4] + 36.01 y[2,5] + 80.81 y[2,6]
   + 43.91 y[2,7] + 47.43 y[2,9] + 71.78 y[2,10] + 65.46 y[3,0]
   + 54.08 y[3,1] + 42.45 y[3,2] + 67.68 y[3,4] + 72.45 y[3,5]
   + 38.42 y[3,6] + 51.48 y[3,7] + 64.26 y[3,8] + 10.77 y[3,9]
   + 37.48 y[3,10] + 43.05 y[4,0] + 36.14 y[4,2] + 67.68 y[4,3]
   + 10.05 y[4,5] + 31.78 y[4,7] + 76.16 y[4,9] + 82.73 y[4,10]
   + 53.08 y[5,0] + 36.01 y[5,2] + 72.45 y[5,3] + 10.05 y[5,4]
   + 41.44 y[5,7] + 80.06 y[5,9] + 46.96 y[6,1] + 80.81 y[6,2]
   + 38.42 y[6,3] + 78.45 y[6,7] + 30.02 y[6,8] + 36.77 y[6,9]
   + 30.81 y[6,10] + 17.8 y[7,0] + 55 y[7,1] + 43.91 y[7,2] + 51.48 y[7,3]
   + 31.78 y[7,4] + 41.44 y[7,5] + 78.45 y[7,6] + 61.98 y[7,9]
   + 54.08 y[7,10] + 41.98 y[8,1] + 64.26 y[8,3] + 30.02 y[8,6]
   + 65.31 y[8,9] + 37.01 y[8,10] + 76.22 y[9,0] + 61.72 y[9,1]
   + 47.43 y[9,2] + 10.77 y[9,3] + 76.16 y[9,4] + 80.06 y[9,5]
   + 36.77 y[9,6] + 61.98 y[9,7] + 65.31 y[9,8] + 44.01 y[9,10]
   + 58.24 y[10,0] + 18.44 y[10,1] + 71.78 y[10,2] + 37.48 y[10,3]
   + 82.73 y[10,4] + 30.81 y[10,6] + 54.08 y[10,7] + 37.01 y[10,8]
   + 44.01 y[10,9] + 5.325 r[0,1] + 6.159 r[0,2] + 6.546 r[0,3]
   + 4.305 r[0,4] + 5.308 r[0,5] + 1.78 r[0,7] + 7.622 r[0,9]
   + 5.824 r[0,10] + 5.325 r[1,0] + 8.273 r[1,2] + 5.408 r[1,3]
   + 4.696 r[1,6] + 5.5 r[1,7] + 4.198 r[1,8] + 6.172 r[1,9]
   + 1.844 r[1,10] + 6.159 r[2,0] + 8.273 r[2,1] + 4.245 r[2,3]
   + 3.614 r[2,4] + 3.601 r[2,5] + 8.081 r[2,6] + 4.391 r[2,7]
   + 4.743 r[2,9] + 7.178 r[2,10] + 6.546 r[3,0] + 5.408 r[3,1]
   + 4.245 r[3,2] + 6.768 r[3,4] + 7.245 r[3,5] + 3.842 r[3,6]
   + 5.148 r[3,7] + 6.426 r[3,8] + 1.077 r[3,9] + 3.748 r[3,10]
   + 4.305 r[4,0] + 3.614 r[4,2] + 6.768 r[4,3] + 1.005 r[4,5]
   + 3.178 r[4,7] + 7.616 r[4,9] + 8.273 r[4,10] + 5.308 r[5,0]
   + 3.601 r[5,2] + 7.245 r[5,3] + 1.005 r[5,4] + 4.144 r[5,7]
   + 8.006 r[5,9] + 4.696 r[6,1] + 8.081 r[6,2] + 3.842 r[6,3]
   + 7.845 r[6,7] + 3.002 r[6,8] + 3.677 r[6,9] + 3.081 r[6,10]
   + 1.78 r[7,0] + 5.5 r[7,1] + 4.391 r[7,2] + 5.148 r[7,3] + 3.178 r[7,4]
   + 4.144 r[7,5] + 7.845 r[7,6] + 6.198 r[7,9] + 5.408 r[7,10]
   + 4.198 r[8,1] + 6.426 r[8,3] + 3.002 r[8,6] + 6.531 r[8,9]
   + 3.701 r[8,10] + 7.622 r[9,0] + 6.172 r[9,1] + 4.743 r[9,2]
   + 1.077 r[9,3] + 7.616 r[9,4] + 8.006 r[9,5] + 3.677 r[9,6]
   + 6.198 r[9,7] + 6.531 r[9,8] + 4.401 r[9,10] + 5.824 r[10,0]
   + 1.844 r[10,1] + 7.178 r[10,2] + 3.748 r[10,3] + 8.273 r[10,4]
   + 3.081 r[10,6] + 5.408 r[10,7] + 3.701 r[10,8] + 4.401 r[10,9]
Subject To
 flow_cons_inner_nodes[0]: - y[0,1] - y[0,2] - y[0,3] - y[0,4] - y[0,5]
   - y[0,7] - y[0,9] - y[0,10] + y[1,0] + y[2,0] + y[3,0] + y[4,0] + y[5,0]
   + y[7,0] + y[9,0] + y[10,0] = 0
 flow_cons_inner_nodes[1]: y[0,1] - y[1,0] - y[1,2] - y[1,3] - y[1,6]
   - y[1,7] - y[1,8] - y[1,9] - y[1,10] + y[2,1] + y[3,1] + y[6,1] + y[7,1]
   + y[8,1] + y[9,1] + y[10,1] = 0
 flow_cons_inner_nodes[2]: y[0,2] + y[1,2] - y[2,0] - y[2,1] - y[2,3]
   - y[2,4] - y[2,5] - y[2,6] - y[2,7] - y[2,9] - y[2,10] + y[3,2] + y[4,2]
   + y[5,2] + y[6,2] + y[7,2] + y[9,2] + y[10,2] = 0
 flow_cons_inner_nodes[3]: y[0,3] + y[1,3] + y[2,3] - y[3,0] - y[3,1]
   - y[3,2] - y[3,4] - y[3,5] - y[3,6] - y[3,7] - y[3,8] - y[3,9] - y[3,10]
   + y[4,3] + y[5,3] + y[6,3] + y[7,3] + y[8,3] + y[9,3] + y[10,3] = 0
 flow_cons_inner_nodes[4]: y[0,4] + y[2,4] + y[3,4] - y[4,0] - y[4,2]
   - y[4,3] - y[4,5] - y[4,7] - y[4,9] - y[4,10] + y[5,4] + y[7,4] + y[9,4]
   + y[10,4] = 0
 flow_cons_inner_nodes[6]: y[1,6] + y[2,6] + y[3,6] - y[6,1] - y[6,2]
   - y[6,3] - y[6,7] - y[6,8] - y[6,9] - y[6,10] + y[7,6] + y[8,6] + y[9,6]
   + y[10,6] = 0
 flow_cons_inner_nodes[7]: y[0,7] + y[1,7] + y[2,7] + y[3,7] + y[4,7]
   + y[5,7] + y[6,7] - y[7,0] - y[7,1] - y[7,2] - y[7,3] - y[7,4] - y[7,5]
   - y[7,6] - y[7,9] - y[7,10] + y[9,7] + y[10,7] = 0
 flow_cons_inner_nodes[9]: y[0,9] + y[1,9] + y[2,9] + y[3,9] + y[4,9]
   + y[5,9] + y[6,9] + y[7,9] + y[8,9] - y[9,0] - y[9,1] - y[9,2] - y[9,3]
   - y[9,4] - y[9,5] - y[9,6] - y[9,7] - y[9,8] - y[9,10] + y[10,9] = 0
 flow_cons_inner_nodes[10]: y[0,10] + y[1,10] + y[2,10] + y[3,10] + y[4,10]
   + y[6,10] + y[7,10] + y[8,10] + y[9,10] - y[10,0] - y[10,1] - y[10,2]
   - y[10,3] - y[10,4] - y[10,6] - y[10,7] - y[10,8] - y[10,9] = 0
 flow_cons_source: - y[0,5] - y[2,5] - y[3,5] - y[4,5] + y[5,0] + y[5,2]
   + y[5,3] + y[5,4] + y[5,7] + y[5,9] - y[7,5] - y[9,5] = 1
 flow_cons_target: y[1,8] + y[3,8] + y[6,8] - y[8,1] - y[8,3] - y[8,6]
   - y[8,9] - y[8,10] + y[9,8] + y[10,8] = 1
 primal_lower: - 1.3 y[0,1] - 1.07 y[0,2] - 4.01 y[0,3] - 3.86 y[0,4]
   - 2.96 y[0,5] - 2.45 y[0,7] - 2.37 y[0,9] - 0.91 y[0,10] - 3.33 y[1,0]
   - 3.88 y[1,2] - 3.12 y[1,3] - 2.16 y[1,6] - 1.91 y[1,7] - 3.47 y[1,8]
   - 3.66 y[1,9] - 0.99 y[1,10] - 4.17 y[2,0] - 0.26 y[2,1] - 1.25 y[2,3]
   - 1.35 y[2,4] - 3.04 y[2,5] - 3.06 y[2,6] - 4.08 y[2,7] - 2.63 y[2,9]
   - 1.54 y[2,10] - 1.82 y[3,0] - 3.92 y[3,1] - 1.09 y[3,2] - 1.31 y[3,4]
   - 0.33 y[3,5] - 1.09 y[3,6] - 3.94 y[3,7] - 3.65 y[3,8] - 2.76 y[3,9]
   - 4.29 y[3,10] - 4.07 y[4,0] - 3.7 y[4,2] - 3.99 y[4,3] - 2.88 y[4,5]
   - 1.7 y[4,7] - 2.52 y[4,9] - 1.63 y[4,10] - 2.08 y[5,0] - 1.56 y[5,2]
   - 0.72 y[5,3] - 3.87 y[5,4] - 2.35 y[5,7] - 3.56 y[5,9] - 2.46 y[6,1]
   - 0.03 y[6,2] - 2.72 y[6,3] - 3.33 y[6,7] - 1.38 y[6,8] - 0.12 y[6,9]
   - 0.39 y[6,10] - 1.11 y[7,0] - 2.67 y[7,1] - 3.6 y[7,2] - 0.04 y[7,3]
   - 2.97 y[7,4] - 0.59 y[7,5] - 4.02 y[7,6] - 2.69 y[7,9] - 4.28 y[7,10]
   - 1.17 y[8,1] - 2.57 y[8,3] - 2.26 y[8,6] - 3.18 y[8,9] - 2.72 y[8,10]
   - 2.6 y[9,0] - 4.2 y[9,1] - 2.64 y[9,2] - 2.88 y[9,3] - 3.3 y[9,4]
   - 0.28 y[9,5] - 3.79 y[9,6] - 3.08 y[9,7] - 3.9 y[9,8] - 2.3 y[9,10]
   - 0.02 y[10,0] - 3.48 y[10,1] - 2.45 y[10,2] - 4.01 y[10,3]
   - 0.56 y[10,4] - 1.09 y[10,6] - 3.21 y[10,7] - 0.31 y[10,8]
   - 2.88 y[10,9] + 69 u[0,1] + 2 u[0,2] + 66 u[0,3] + 18 u[0,4] + 4 u[0,5]
   + 68 u[0,7] + 25 u[0,9] + 60 u[0,10] + 26 u[1,0] + 9 u[1,2] + 95 u[1,3]
   + 93 u[1,6] + 63 u[1,7] + 57 u[1,8] + 21 u[1,9] + 3 u[1,10] + 15 u[2,0]
   + 26 u[2,1] + 60 u[2,3] + 54 u[2,4] + 73 u[2,5] + 27 u[2,6] + 33 u[2,7]
   + 47 u[2,9] + 34 u[2,10] + 87 u[3,0] + 58 u[3,1] + 62 u[3,2] + 78 u[3,4]
   + 51 u[3,5] + 30 u[3,6] + 76 u[3,7] + 79 u[3,8] + 34 u[3,9] + 74 u[3,10]
   + 74 u[4,0] + 15 u[4,2] + 46 u[4,3] + 52 u[4,5] + 17 u[4,7] + 31 u[4,9]
   + 85 u[4,10] + 25 u[5,0] + 35 u[5,2] + 54 u[5,3] + 24 u[5,4] + 92 u[5,7]
   + 32 u[5,9] + 94 u[6,1] + 25 u[6,2] + 14 u[6,3] + 90 u[6,7] + 64 u[6,8]
   + 24 u[6,9] + 93 u[6,10] + 75 u[7,0] + 3 u[7,1] + 38 u[7,2] + 77 u[7,3]
   + 12 u[7,4] + 27 u[7,5] + 65 u[7,6] + 9 u[7,9] + 88 u[7,10] + 57 u[8,1]
   + 52 u[8,3] + 19 u[8,6] + 99 u[8,9] + 58 u[8,10] + 87 u[9,0] + 11 u[9,1]
   + 25 u[9,2] + 6 u[9,3] + 45 u[9,4] + 22 u[9,5] + 71 u[9,6] + 74 u[9,7]
   + 18 u[9,8] + 32 u[9,10] + 11 u[10,0] + 93 u[10,1] + 80 u[10,2]
   + 15 u[10,3] + 29 u[10,4] + 68 u[10,6] + 29 u[10,7] + 63 u[10,8]
   + 79 u[10,9] <= 381
 mccormick1[0,1]: - u[0,1] + r[0,1] <= 0
 mccormick1[0,2]: - u[0,2] + r[0,2] <= 0
 mccormick1[0,3]: - u[0,3] + r[0,3] <= 0
 mccormick1[0,4]: - u[0,4] + r[0,4] <= 0
 mccormick1[0,5]: - u[0,5] + r[0,5] <= 0
 mccormick1[0,7]: - u[0,7] + r[0,7] <= 0
 mccormick1[0,9]: - u[0,9] + r[0,9] <= 0
 mccormick1[0,10]: - u[0,10] + r[0,10] <= 0
 mccormick1[1,0]: - u[1,0] + r[1,0] <= 0
 mccormick1[1,2]: - u[1,2] + r[1,2] <= 0
 mccormick1[1,3]: - u[1,3] + r[1,3] <= 0
 mccormick1[1,6]: - u[1,6] + r[1,6] <= 0
 mccormick1[1,7]: - u[1,7] + r[1,7] <= 0
 mccormick1[1,8]: - u[1,8] + r[1,8] <= 0
 mccormick1[1,9]: - u[1,9] + r[1,9] <= 0
 mccormick1[1,10]: - u[1,10] + r[1,10] <= 0
 mccormick1[2,0]: - u[2,0] + r[2,0] <= 0
 mccormick1[2,1]: - u[2,1] + r[2,1] <= 0
 mccormick1[2,3]: - u[2,3] + r[2,3] <= 0
 mccormick1[2,4]: - u[2,4] + r[2,4] <= 0
 mccormick1[2,5]: - u[2,5] + r[2,5] <= 0
 mccormick1[2,6]: - u[2,6] + r[2,6] <= 0
 mccormick1[2,7]: - u[2,7] + r[2,7] <= 0
 mccormick1[2,9]: - u[2,9] + r[2,9] <= 0
 mccormick1[2,10]: - u[2,10] + r[2,10] <= 0
 mccormick1[3,0]: - u[3,0] + r[3,0] <= 0
 mccormick1[3,1]: - u[3,1] + r[3,1] <= 0
 mccormick1[3,2]: - u[3,2] + r[3,2] <= 0
 mccormick1[3,4]: - u[3,4] + r[3,4] <= 0
 mccormick1[3,5]: - u[3,5] + r[3,5] <= 0
 mccormick1[3,6]: - u[3,6] + r[3,6] <= 0
 mccormick1[3,7]: - u[3,7] + r[3,7] <= 0
 mccormick1[3,8]: - u[3,8] + r[3,8] <= 0
 mccormick1[3,9]: - u[3,9] + r[3,9] <= 0
 mccormick1[3,10]: - u[3,10] + r[3,10] <= 0
 mccormick1[4,0]: - u[4,0] + r[4,0] <= 0
 mccormick1[4,2]: - u[4,2] + r[4,2] <= 0
 mccormick1[4,3]: - u[4,3] + r[4,3] <= 0
 mccormick1[4,5]: - u[4,5] + r[4,5] <= 0
 mccormick1[4,7]: - u[4,7] + r[4,7] <= 0
 mccormick1[4,9]: - u[4,9] + r[4,9] <= 0
 mccormick1[4,10]: - u[4,10] + r[4,10] <= 0
 mccormick1[5,0]: - u[5,0] + r[5,0] <= 0
 mccormick1[5,2]: - u[5,2] + r[5,2] <= 0
 mccormick1[5,3]: - u[5,3] + r[5,3] <= 0
 mccormick1[5,4]: - u[5,4] + r[5,4] <= 0
 mccormick1[5,7]: - u[5,7] + r[5,7] <= 0
 mccormick1[5,9]: - u[5,9] + r[5,9] <= 0
 mccormick1[6,1]: - u[6,1] + r[6,1] <= 0
 mccormick1[6,2]: - u[6,2] + r[6,2] <= 0
 mccormick1[6,3]: - u[6,3] + r[6,3] <= 0
 mccormick1[6,7]: - u[6,7] + r[6,7] <= 0
 mccormick1[6,8]: - u[6,8] + r[6,8] <= 0
 mccormick1[6,9]: - u[6,9] + r[6,9] <= 0
 mccormick1[6,10]: - u[6,10] + r[6,10] <= 0
 mccormick1[7,0]: - u[7,0] + r[7,0] <= 0
 mccormick1[7,1]: - u[7,1] + r[7,1] <= 0
 mccormick1[7,2]: - u[7,2] + r[7,2] <= 0
 mccormick1[7,3]: - u[7,3] + r[7,3] <= 0
 mccormick1[7,4]: - u[7,4] + r[7,4] <= 0
 mccormick1[7,5]: - u[7,5] + r[7,5] <= 0
 mccormick1[7,6]: - u[7,6] + r[7,6] <= 0
 mccormick1[7,9]: - u[7,9] + r[7,9] <= 0
 mccormick1[7,10]: - u[7,10] + r[7,10] <= 0
 mccormick1[8,1]: - u[8,1] + r[8,1] <= 0
 mccormick1[8,3]: - u[8,3] + r[8,3] <= 0
 mccormick1[8,6]: - u[8,6] + r[8,6] <= 0
 mccormick1[8,9]: - u[8,9] + r[8,9] <= 0
 mccormick1[8,10]: - u[8,10] + r[8,10] <= 0
 mccormick1[9,0]: - u[9,0] + r[9,0] <= 0
 mccormick1[9,1]: - u[9,1] + r[9,1] <= 0
 mccormick1[9,2]: - u[9,2] + r[9,2] <= 0
 mccormick1[9,3]: - u[9,3] + r[9,3] <= 0
 mccormick1[9,4]: - u[9,4] + r[9,4] <= 0
 mccormick1[9,5]: - u[9,5] + r[9,5] <= 0
 mccormick1[9,6]: - u[9,6] + r[9,6] <= 0
 mccormick1[9,7]: - u[9,7] + r[9,7] <= 0
 mccormick1[9,8]: - u[9,8] + r[9,8] <= 0
 mccormick1[9,10]: - u[9,10] + r[9,10] <= 0
 mccormick1[10,0]: - u[10,0] + r[10,0] <= 0
 mccormick1[10,1]: - u[10,1] + r[10,1] <= 0
 mccormick1[10,2]: - u[10,2] + r[10,2] <= 0
 mccormick1[10,3]: - u[10,3] + r[10,3] <= 0
 mccormick1[10,4]: - u[10,4] + r[10,4] <= 0
 mccormick1[10,6]: - u[10,6] + r[10,6] <= 0
 mccormick1[10,7]: - u[10,7] + r[10,7] <= 0
 mccormick1[10,8]: - u[10,8] + r[10,8] <= 0
 mccormick1[10,9]: - u[10,9] + r[10,9] <= 0
 mccormick2[0,1]: - y[0,1] + r[0,1] <= 0
 mccormick2[0,2]: - y[0,2] + r[0,2] <= 0
 mccormick2[0,3]: - y[0,3] + r[0,3] <= 0
 mccormick2[0,4]: - y[0,4] + r[0,4] <= 0
 mccormick2[0,5]: - y[0,5] + r[0,5] <= 0
 mccormick2[0,7]: - y[0,7] + r[0,7] <= 0
 mccormick2[0,9]: - y[0,9] + r[0,9] <= 0
 mccormick2[0,10]: - y[0,10] + r[0,10] <= 0
 mccormick2[1,0]: - y[1,0] + r[1,0] <= 0
 mccormick2[1,2]: - y[1,2] + r[1,2] <= 0
 mccormick2[1,3]: - y[1,3] + r[1,3] <= 0
 mccormick2[1,6]: - y[1,6] + r[1,6] <= 0
 mccormick2[1,7]: - y[1,7] + r[1,7] <= 0
 mccormick2[1,8]: - y[1,8] + r[1,8] <= 0
 mccormick2[1,9]: - y[1,9] + r[1,9] <= 0
 mccormick2[1,10]: - y[1,10] + r[1,10] <= 0
 mccormick2[2,0]: - y[2,0] + r[2,0] <= 0
 mccormick2[2,1]: - y[2,1] + r[2,1] <= 0
 mccormick2[2,3]: - y[2,3] + r[2,3] <= 0
 mccormick2[2,4]: - y[2,4] + r[2,4] <= 0
 mccormick2[2,5]: - y[2,5] + r[2,5] <= 0
 mccormick2[2,6]: - y[2,6] + r[2,6] <= 0
 mccormick2[2,7]: - y[2,7] + r[2,7] <= 0
 mccormick2[2,9]: - y[2,9] + r[2,9] <= 0
 mccormick2[2,10]: - y[2,10] + r[2,10] <= 0
 mccormick2[3,0]: - y[3,0] + r[3,0] <= 0
 mccormick2[3,1]: - y[3,1] + r[3,1] <= 0
 mccormick2[3,2]: - y[3,2] + r[3,2] <= 0
 mccormick2[3,4]: - y[3,4] + r[3,4] <= 0
 mccormick2[3,5]: - y[3,5] + r[3,5] <= 0
 mccormick2[3,6]: - y[3,6] + r[3,6] <= 0
 mccormick2[3,7]: - y[3,7] + r[3,7] <= 0
 mccormick2[3,8]: - y[3,8] + r[3,8] <= 0
 mccormick2[3,9]: - y[3,9] + r[3,9] <= 0
 mccormick2[3,10]: - y[3,10] + r[3,10] <= 0
 mccormick2[4,0]: - y[4,0] + r[4,0] <= 0
 mccormick2[4,2]: - y[4,2] + r[4,2] <= 0
 mccormick2[4,3]: - y[4,3] + r[4,3] <= 0
 mccormick2[4,5]: - y[4,5] + r[4,5] <= 0
 mccormick2[4,7]: - y[4,7] + r[4,7] <= 0
 mccormick2[4,9]: - y[4,9] + r[4,9] <= 0
 mccormick2[4,10]: - y[4,10] + r[4,10] <= 0
 mccormick2[5,0]: - y[5,0] + r[5,0] <= 0
 mccormick2[5,2]: - y[5,2] + r[5,2] <= 0
 mccormick2[5,3]: - y[5,3] + r[5,3] <= 0
 mccormick2[5,4]: - y[5,4] + r[5,4] <= 0
 mccormick2[5,7]: - y[5,7] + r[5,7] <= 0
 mccormick2[5,9]: - y[5,9] + r[5,9] <= 0
 mccormick2[6,1]: - y[6,1] + r[6,1] <= 0
 mccormick2[6,2]: - y[6,2] + r[6,2] <= 0
 mccormick2[6,3]: - y[6,3] + r[6,3] <= 0
 mccormick2[6,7]: - y[6,7] + r[6,7] <= 0
 mccormick2[6,8]: - y[6,8] + r[6,8] <= 0
 mccormick2[6,9]: - y[6,9] + r[6,9] <= 0
 mccormick2[6,10]: - y[6,10] + r[6,10] <= 0
 mccormick2[7,0]: - y[7,0] + r[7,0] <= 0
 mccormick2[7,1]: - y[7,1] + r[7,1] <= 0
 mccormick2[7,2]: - y[7,2] + r[7,2] <= 0
 mccormick2[7,3]: - y[7,3] + r[7,3] <= 0
 mccormick2[7,4]: - y[7,4] + r[7,4] <= 0
 mccormick2[7,5]: - y[7,5] + r[7,5] <= 0
 mccormick2[7,6]: - y[7,6] + r[7,6] <= 0
 mccormick2[7,9]: - y[7,9] + r[7,9] <= 0
 mccormick2[7,10]: - y[7,10] + r[7,10] <= 0
 mccormick2[8,1]: - y[8,1] + r[8,1] <= 0
 mccormick2[8,3]: - y[8,3] + r[8,3] <= 0
 mccormick2[8,6]: - y[8,6] + r[8,6] <= 0
 mccormick2[8,9]: - y[8,9] + r[8,9] <= 0
 mccormick2[8,10]: - y[8,10] + r[8,10] <= 0
 mccormick2[9,0]: - y[9,0] + r[9,0] <= 0
 mccormick2[9,1]: - y[9,1] + r[9,1] <= 0
 mccormick2[9,2]: - y[9,2] + r[9,2] <= 0
 mccormick2[9,3]: - y[9,3] + r[9,3] <= 0
 mccormick2[9,4]: - y[9,4] + r[9,4] <= 0
 mccormick2[9,5]: - y[9,5] + r[9,5] <= 0
 mccormick2[9,6]: - y[9,6] + r[9,6] <= 0
 mccormick2[9,7]: - y[9,7] + r[9,7] <= 0
 mccormick2[9,8]: - y[9,8] + r[9,8] <= 0
 mccormick2[9,10]: - y[9,10] + r[9,10] <= 0
 mccormick2[10,0]: - y[10,0] + r[10,0] <= 0
 mccormick2[10,1]: - y[10,1] + r[10,1] <= 0
 mccormick2[10,2]: - y[10,2] + r[10,2] <= 0
 mccormick2[10,3]: - y[10,3] + r[10,3] <= 0
 mccormick2[10,4]: - y[10,4] + r[10,4] <= 0
 mccormick2[10,6]: - y[10,6] + r[10,6] <= 0
 mccormick2[10,7]: - y[10,7] + r[10,7] <= 0
 mccormick2[10,8]: - y[10,8] + r[10,8] <= 0
 mccormick2[10,9]: - y[10,9] + r[10,9] <= 0
 mccormick3[0,1]: - y[0,1] - u[0,1] + r[0,1] >= -1
 mccormick3[0,2]: - y[0,2] - u[0,2] + r[0,2] >= -1
 mccormick3[0,3]: - y[0,3] - u[0,3] + r[0,3] >= -1
 mccormick3[0,4]: - y[0,4] - u[0,4] + r[0,4] >= -1
 mccormick3[0,5]: - y[0,5] - u[0,5] + r[0,5] >= -1
 mccormick3[0,7]: - y[0,7] - u[0,7] + r[0,7] >= -1
 mccormick3[0,9]: - y[0,9] - u[0,9] + r[0,9] >= -1
 mccormick3[0,10]: - y[0,10] - u[0,10] + r[0,10] >= -1
 mccormick3[1,0]: - y[1,0] - u[1,0] + r[1,0] >= -1
 mccormick3[1,2]: - y[1,2] - u[1,2] + r[1,2] >= -1
 mccormick3[1,3]: - y[1,3] - u[1,3] + r[1,3] >= -1
 mccormick3[1,6]: - y[1,6] - u[1,6] + r[1,6] >= -1
 mccormick3[1,7]: - y[1,7] - u[1,7] + r[1,7] >= -1
 mccormick3[1,8]: - y[1,8] - u[1,8] + r[1,8] >= -1
 mccormick3[1,9]: - y[1,9] - u[1,9] + r[1,9] >= -1
 mccormick3[1,10]: - y[1,10] - u[1,10] + r[1,10] >= -1
 mccormick3[2,0]: - y[2,0] - u[2,0] + r[2,0] >= -1
 mccormick3[2,1]: - y[2,1] - u[2,1] + r[2,1] >= -1
 mccormick3[2,3]: - y[2,3] - u[2,3] + r[2,3] >= -1
 mccormick3[2,4]: - y[2,4] - u[2,4] + r[2,4] >= -1
 mccormick3[2,5]: - y[2,5] - u[2,5] + r[2,5] >= -1
 mccormick3[2,6]: - y[2,6] - u[2,6] + r[2,6] >= -1
 mccormick3[2,7]: - y[2,7] - u[2,7] + r[2,7] >= -1
 mccormick3[2,9]: - y[2,9] - u[2,9] + r[2,9] >= -1
 mccormick3[2,10]: - y[2,10] - u[2,10] + r[2,10] >= -1
 mccormick3[3,0]: - y[3,0] - u[3,0] + r[3,0] >= -1
 mccormick3[3,1]: - y[3,1] - u[3,1] + r[3,1] >= -1
 mccormick3[3,2]: - y[3,2] - u[3,2] + r[3,2] >= -1
 mccormick3[3,4]: - y[3,4] - u[3,4] + r[3,4] >= -1
 mccormick3[3,5]: - y[3,5] - u[3,5] + r[3,5] >= -1
 mccormick3[3,6]: - y[3,6] - u[3,6] + r[3,6] >= -1
 mccormick3[3,7]: - y[3,7] - u[3,7] + r[3,7] >= -1
 mccormick3[3,8]: - y[3,8] - u[3,8] + r[3,8] >= -1
 mccormick3[3,9]: - y[3,9] - u[3,9] + r[3,9] >= -1
 mccormick3[3,10]: - y[3,10] - u[3,10] + r[3,10] >= -1
 mccormick3[4,0]: - y[4,0] - u[4,0] + r[4,0] >= -1
 mccormick3[4,2]: - y[4,2] - u[4,2] + r[4,2] >= -1
 mccormick3[4,3]: - y[4,3] - u[4,3] + r[4,3] >= -1
 mccormick3[4,5]: - y[4,5] - u[4,5] + r[4,5] >= -1
 mccormick3[4,7]: - y[4,7] - u[4,7] + r[4,7] >= -1
 mccormick3[4,9]: - y[4,9] - u[4,9] + r[4,9] >= -1
 mccormick3[4,10]: - y[4,10] - u[4,10] + r[4,10] >= -1
 mccormick3[5,0]: - y[5,0] - u[5,0] + r[5,0] >= -1
 mccormick3[5,2]: - y[5,2] - u[5,2] + r[5,2] >= -1
 mccormick3[5,3]: - y[5,3] - u[5,3] + r[5,3] >= -1
 mccormick3[5,4]: - y[5,4] - u[5,4] + r[5,4] >= -1
 mccormick3[5,7]: - y[5,7] - u[5,7] + r[5,7] >= -1
 mccormick3[5,9]: - y[5,9] - u[5,9] + r[5,9] >= -1
 mccormick3[6,1]: - y[6,1] - u[6,1] + r[6,1] >= -1
 mccormick3[6,2]: - y[6,2] - u[6,2] + r[6,2] >= -1
 mccormick3[6,3]: - y[6,3] - u[6,3] + r[6,3] >= -1
 mccormick3[6,7]: - y[6,7] - u[6,7] + r[6,7] >= -1
 mccormick3[6,8]: - y[6,8] - u[6,8] + r[6,8] >= -1
 mccormick3[6,9]: - y[6,9] - u[6,9] + r[6,9] >= -1
 mccormick3[6,10]: - y[6,10] - u[6,10] + r[6,10] >= -1
 mccormick3[7,0]: - y[7,0] - u[7,0] + r[7,0] >= -1
 mccormick3[7,1]: - y[7,1] - u[7,1] + r[7,1] >= -1
 mccormick3[7,2]: - y[7,2] - u[7,2] + r[7,2] >= -1
 mccormick3[7,3]: - y[7,3] - u[7,3] + r[7,3] >= -1
 mccormick3[7,4]: - y[7,4] - u[7,4] + r[7,4] >= -1
 mccormick3[7,5]: - y[7,5] - u[7,5] + r[7,5] >= -1
 mccormick3[7,6]: - y[7,6] - u[7,6] + r[7,6] >= -1
 mccormick3[7,9]: - y[7,9] - u[7,9] + r[7,9] >= -1
 mccormick3[7,10]: - y[7,10] - u[7,10] + r[7,10] >= -1
 mccormick3[8,1]: - y[8,1] - u[8,1] + r[8,1] >= -1
 mccormick3[8,3]: - y[8,3] - u[8,3] + r[8,3] >= -1
 mccormick3[8,6]: - y[8,6] - u[8,6] + r[8,6] >= -1
 mccormick3[8,9]: - y[8,9] - u[8,9] + r[8,9] >= -1
 mccormick3[8,10]: - y[8,10] - u[8,10] + r[8,10] >= -1
 mccormick3[9,0]: - y[9,0] - u[9,0] + r[9,0] >= -1
 mccormick3[9,1]: - y[9,1] - u[9,1] + r[9,1] >= -1
 mccormick3[9,2]: - y[9,2] - u[9,2] + r[9,2] >= -1
 mccormick3[9,3]: - y[9,3] - u[9,3] + r[9,3] >= -1
 mccormick3[9,4]: - y[9,4] - u[9,4] + r[9,4] >= -1
 mccormick3[9,5]: - y[9,5] - u[9,5] + r[9,5] >= -1
 mccormick3[9,6]: - y[9,6] - u[9,6] + r[9,6] >= -1
 mccormick3[9,7]: - y[9,7] - u[9,7] + r[9,7] >= -1
 mccormick3[9,8]: - y[9,8] - u[9,8] + r[9,8] >= -1
 mccormick3[9,10]: - y[9,10] - u[9,10] + r[9,10] >= -1
 mccormick3[10,0]: - y[10,0] - u[10,0] + r[10,0] >= -1
 mccormick3[10,1]: - y[10,1] - u[10,1] + r[10,1] >= -1
 mccormick3[10,2]: - y[10,2] - u[10,2] + r[10,2] >= -1
 mccormick3[10,3]: - y[10,3] - u[10,3] + r[10,3] >= -1
 mccormick3[10,4]: - y[10,4] - u[10,4] + r[10,4] >= -1
 mccormick3[10,6]: - y[10,6] - u[10,6] + r[10,6] >= -1
 mccormick3[10,7]: - y[10,7] - u[10,7] + r[10,7] >= -1
 mccormick3[10,8]: - y[10,8] - u[10,8] + r[10,8] >= -1
 mccormick3[10,9]: - y[10,9] - u[10,9] + r[10,9] >= -1
Bounds
Binaries
 y[0,1] y[0,2] y[0,3] y[0,4] y[0,5] y[0,7] y[0,9] y[0,10] y[1,0] y[1,2]
 y[1,3] y[1,6] y[1,7] y[1,8] y[1,9] y[1,10] y[2,0] y[2,1] y[2,3] y[2,4]
 y[2,5] y[2,6] y[2,7] y[2,9] y[2,10] y[3,0] y[3,1] y[3,2] y[3,4] y[3,5]
 y[3,6] y[3,7] y[3,8] y[3,9] y[3,10] y[4,0] y[4,2] y[4,3] y[4,5] y[4,7]
 y[4,9] y[4,10] y[5,0] y[5,2] y[5,3] y[5,4] y[5,7] y[5,9] y[6,1] y[6,2]
 y[6,3] y[6,7] y[6,8] y[6,9] y[6,10] y[7,0] y[7,1] y[7,2] y[7,3] y[7,4]
 y[7,5] y[7,6] y[7,9] y[7,10] y[8,1] y[8,3] y[8,6] y[8,9] y[8,10] y[9,0]
 y[9,1] y[9,2] y[9,3] y[9,4] y[9,5] y[9,6] y[9,7] y[9,8] y[9,10] y[10,0]
 y[10,1] y[10,2] y[10,3] y[10,4] y[10,6] y[10,7] y[10,8] y[10,9] u[0,1]
 u[0,2] u[0,3] u[0,4] u[0,5] u[0,7] u[0,9] u[0,10] u[1,0] u[1,2] u[1,3]
 u[1,6] u[1,7] u[1,8] u[1,9] u[1,10] u[2,0] u[2,1] u[2,3] u[2,4] u[2,5]
 u[2,6] u[2,7] u[2,9] u[2,10] u[3,0] u[3,1] u[3,2] u[3,4] u[3,5] u[3,6]
 u[3,7] u[3,8] u[3,9] u[3,10] u[4,0] u[4,2] u[4,3] u[4,5] u[4,7] u[4,9]
 u[4,10] u[5,0] u[5,2] u[5,3] u[5,4] u[5,7] u[5,9] u[6,1] u[6,2] u[6,3]
 u[6,7] u[6,8] u[6,9] u[6,10] u[7,0] u[7,1] u[7,2] u[7,3] u[7,4] u[7,5]
 u[7,6] u[7,9] u[7,10] u[8,1] u[8,3] u[8,6] u[8,9] u[8,10] u[9,0] u[9,1]
 u[9,2] u[9,3] u[9,4] u[9,5] u[9,6] u[9,7] u[9,8] u[9,10] u[10,0] u[10,1]
 u[10,2] u[10,3] u[10,4] u[10,6] u[10,7] u[10,8] u[10,9] r[0,1] r[0,2]
 r[0,3] r[0,4] r[0,5] r[0,7] r[0,9] r[0,10] r[1,0] r[1,2] r[1,3] r[1,6]
 r[1,7] r[1,8] r[1,9] r[1,10] r[2,0] r[2,1] r[2,3] r[2,4] r[2,5] r[2,6]
 r[2,7] r[2,9] r[2,10] r[3,0] r[3,1] r[3,2] r[3,4] r[3,5] r[3,6] r[3,7]
 r[3,8] r[3,9] r[3,10] r[4,0] r[4,2] r[4,3] r[4,5] r[4,7] r[4,9] r[4,10]
 r[5,0] r[5,2] r[5,3] r[5,4] r[5,7] r[5,9] r[6,1] r[6,2] r[6,3] r[6,7]
 r[6,8] r[6,9] r[6,10] r[7,0] r[7,1] r[7,2] r[7,3] r[7,4] r[7,5] r[7,6]
 r[7,9] r[7,10] r[8,1] r[8,3] r[8,6] r[8,9] r[8,10] r[9,0] r[9,1] r[9,2]
 r[9,3] r[9,4] r[9,5] r[9,6] r[9,7] r[9,8] r[9,10] r[10,0] r[10,1] r[10,2]
 r[10,3] r[10,4] r[10,6] r[10,7] r[10,8] r[10,9]
End
